objective value:                                  939
X_0                                                 5 	(obj:0)
X_1                                                15 	(obj:0)
X_2                                                 6 	(obj:0)
X_3                                                 4 	(obj:0)
W                                                 939 	(obj:1)
